c "473254.clq"
p edge 246 3680
e 1 17
e 1 18
e 1 19
e 1 20
e 1 21
e 1 22
e 1 23
e 1 24
e 1 25
e 1 27
e 1 28
e 1 29
e 1 31
e 1 34
e 1 35
e 1 36
e 1 37
e 1 38
e 1 39
e 1 41
e 1 43
e 1 45
e 1 46
e 1 48
e 1 51
e 1 52
e 1 54
e 1 57
e 1 63
e 1 68
e 1 69
e 1 73
e 1 75
e 1 77
e 1 80
e 1 81
e 1 85
e 1 90
e 1 93
e 1 94
e 1 100
e 1 104
e 1 107
e 1 108
e 1 112
e 1 113
e 1 114
e 1 115
e 1 117
e 1 128
e 1 136
e 1 139
e 1 140
e 1 141
e 1 145
e 1 146
e 1 162
e 1 163
e 1 167
e 1 171
e 1 177
e 1 178
e 1 179
e 1 180
e 1 182
e 1 185
e 1 187
e 1 188
e 1 190
e 1 195
e 1 200
e 1 211
e 1 221
e 1 224
e 1 229
e 1 239
e 2 17
e 2 18
e 2 19
e 2 20
e 2 21
e 2 22
e 2 26
e 2 32
e 2 34
e 2 35
e 2 36
e 2 45
e 2 51
e 2 59
e 2 63
e 2 64
e 2 72
e 2 76
e 2 79
e 2 84
e 2 87
e 2 100
e 2 105
e 2 110
e 2 113
e 2 118
e 2 125
e 2 132
e 2 139
e 2 146
e 2 157
e 2 188
e 2 193
e 2 201
e 2 205
e 3 17
e 3 18
e 3 20
e 3 21
e 3 22
e 3 23
e 3 26
e 3 32
e 3 33
e 3 38
e 3 45
e 3 50
e 3 66
e 3 70
e 3 77
e 3 78
e 3 80
e 3 83
e 3 85
e 3 104
e 3 106
e 3 107
e 3 110
e 3 125
e 3 135
e 3 150
e 3 190
e 3 201
e 3 211
e 3 214
e 3 221
e 3 223
e 3 245
e 4 17
e 4 18
e 4 19
e 4 20
e 4 21
e 4 23
e 4 24
e 4 25
e 4 29
e 4 30
e 4 31
e 4 33
e 4 40
e 4 42
e 4 50
e 4 54
e 4 57
e 4 58
e 4 60
e 4 61
e 4 66
e 4 75
e 4 81
e 4 82
e 4 90
e 4 92
e 4 101
e 4 103
e 4 112
e 4 113
e 4 128
e 4 136
e 4 141
e 4 148
e 4 153
e 4 169
e 4 171
e 4 177
e 4 193
e 4 198
e 4 203
e 4 206
e 4 211
e 4 217
e 4 222
e 4 223
e 5 17
e 5 18
e 5 24
e 5 25
e 5 31
e 5 45
e 5 49
e 5 50
e 5 55
e 5 60
e 5 84
e 5 89
e 5 124
e 5 134
e 5 135
e 5 148
e 5 151
e 5 160
e 5 169
e 5 199
e 5 212
e 6 17
e 6 18
e 6 19
e 6 22
e 6 23
e 6 33
e 6 34
e 6 49
e 6 50
e 6 54
e 6 71
e 6 88
e 6 187
e 6 223
e 7 17
e 7 18
e 7 19
e 7 20
e 7 21
e 7 22
e 7 24
e 7 25
e 7 26
e 7 27
e 7 28
e 7 29
e 7 31
e 7 32
e 7 33
e 7 34
e 7 35
e 7 36
e 7 37
e 7 38
e 7 40
e 7 41
e 7 42
e 7 43
e 7 45
e 7 47
e 7 48
e 7 49
e 7 51
e 7 53
e 7 56
e 7 59
e 7 62
e 7 65
e 7 66
e 7 67
e 7 70
e 7 72
e 7 73
e 7 75
e 7 81
e 7 82
e 7 83
e 7 84
e 7 89
e 7 90
e 7 92
e 7 94
e 7 98
e 7 99
e 7 103
e 7 107
e 7 117
e 7 121
e 7 123
e 7 126
e 7 127
e 7 133
e 7 135
e 7 137
e 7 144
e 7 147
e 7 156
e 7 160
e 7 168
e 7 175
e 7 181
e 7 185
e 7 190
e 7 191
e 7 198
e 7 200
e 7 206
e 7 211
e 7 220
e 7 226
e 7 233
e 7 242
e 7 244
e 7 245
e 8 17
e 8 18
e 8 19
e 8 20
e 8 21
e 8 22
e 8 23
e 8 24
e 8 25
e 8 26
e 8 27
e 8 28
e 8 31
e 8 33
e 8 36
e 8 37
e 8 38
e 8 39
e 8 43
e 8 44
e 8 46
e 8 52
e 8 54
e 8 56
e 8 57
e 8 63
e 8 69
e 8 74
e 8 77
e 8 79
e 8 80
e 8 83
e 8 86
e 8 91
e 8 102
e 8 105
e 8 130
e 8 141
e 8 149
e 8 165
e 8 173
e 8 174
e 8 192
e 8 210
e 8 223
e 8 224
e 8 227
e 8 246
e 9 17
e 9 18
e 9 19
e 9 20
e 9 21
e 9 22
e 9 23
e 9 40
e 9 55
e 9 57
e 9 58
e 9 67
e 9 70
e 9 77
e 9 131
e 9 134
e 9 176
e 9 194
e 9 229
e 10 17
e 10 18
e 10 19
e 10 20
e 10 21
e 10 24
e 10 26
e 10 27
e 10 28
e 10 29
e 10 30
e 10 31
e 10 40
e 10 41
e 10 43
e 10 44
e 10 46
e 10 48
e 10 49
e 10 54
e 10 56
e 10 62
e 10 70
e 10 74
e 10 75
e 10 77
e 10 84
e 10 85
e 10 88
e 10 89
e 10 92
e 10 93
e 10 96
e 10 104
e 10 116
e 10 124
e 10 131
e 10 133
e 10 139
e 10 144
e 10 152
e 10 155
e 10 167
e 10 178
e 10 191
e 10 201
e 10 205
e 10 224
e 10 226
e 10 235
e 10 242
e 10 245
e 11 17
e 11 19
e 11 20
e 11 21
e 11 22
e 11 23
e 11 24
e 11 25
e 11 26
e 11 27
e 11 28
e 11 29
e 11 32
e 11 33
e 11 40
e 11 43
e 11 52
e 11 54
e 11 55
e 11 56
e 11 58
e 11 61
e 11 63
e 11 67
e 11 71
e 11 74
e 11 86
e 11 92
e 11 97
e 11 101
e 11 103
e 11 107
e 11 113
e 11 120
e 11 131
e 11 132
e 11 135
e 11 137
e 11 139
e 11 149
e 11 151
e 11 155
e 11 156
e 11 161
e 11 165
e 11 166
e 11 168
e 11 171
e 11 179
e 11 180
e 11 194
e 11 210
e 11 221
e 11 237
e 11 243
e 12 17
e 12 18
e 12 19
e 12 20
e 12 24
e 12 25
e 12 26
e 12 30
e 12 32
e 12 33
e 12 35
e 12 42
e 12 48
e 12 59
e 12 61
e 12 91
e 12 105
e 12 108
e 12 116
e 12 123
e 12 137
e 12 152
e 12 158
e 12 163
e 12 204
e 13 17
e 13 18
e 13 19
e 13 20
e 13 21
e 13 22
e 13 23
e 13 24
e 13 28
e 13 29
e 13 30
e 13 32
e 13 34
e 13 36
e 13 37
e 13 39
e 13 42
e 13 43
e 13 46
e 13 51
e 13 52
e 13 53
e 13 56
e 13 60
e 13 62
e 13 65
e 13 76
e 13 78
e 13 79
e 13 94
e 13 101
e 13 108
e 13 116
e 13 131
e 13 137
e 13 145
e 13 157
e 13 168
e 13 169
e 13 175
e 13 190
e 13 207
e 13 212
e 13 213
e 13 220
e 13 233
e 13 239
e 14 17
e 14 18
e 14 19
e 14 20
e 14 21
e 14 22
e 14 24
e 14 26
e 14 27
e 14 28
e 14 30
e 14 37
e 14 38
e 14 41
e 14 44
e 14 51
e 14 57
e 14 60
e 14 61
e 14 67
e 14 69
e 14 75
e 14 78
e 14 79
e 14 97
e 14 111
e 14 123
e 14 132
e 14 136
e 14 145
e 14 154
e 14 157
e 14 159
e 14 176
e 14 223
e 14 240
e 14 244
e 15 17
e 15 18
e 15 19
e 15 23
e 15 24
e 15 25
e 15 32
e 15 33
e 15 45
e 15 48
e 15 59
e 15 75
e 15 80
e 15 85
e 15 94
e 15 98
e 15 100
e 15 102
e 15 107
e 15 114
e 15 147
e 15 169
e 15 190
e 15 218
e 15 230
e 15 232
e 15 238
e 16 17
e 16 18
e 16 19
e 16 20
e 16 21
e 16 22
e 16 23
e 16 25
e 16 28
e 16 29
e 16 30
e 16 31
e 16 32
e 16 33
e 16 34
e 16 38
e 16 39
e 16 41
e 16 43
e 16 49
e 16 53
e 16 54
e 16 55
e 16 58
e 16 65
e 16 66
e 16 67
e 16 71
e 16 73
e 16 76
e 16 84
e 16 85
e 16 88
e 16 92
e 16 97
e 16 98
e 16 107
e 16 116
e 16 118
e 16 121
e 16 125
e 16 128
e 16 130
e 16 134
e 16 138
e 16 139
e 16 142
e 16 147
e 16 149
e 16 157
e 16 163
e 16 180
e 16 183
e 16 187
e 16 188
e 16 189
e 16 195
e 16 196
e 16 201
e 16 213
e 16 218
e 16 223
e 16 230
e 16 234
e 16 242
e 17 18
e 17 19
e 17 20
e 17 21
e 17 22
e 17 23
e 17 24
e 17 25
e 17 26
e 17 27
e 17 28
e 17 29
e 17 30
e 17 31
e 17 33
e 17 36
e 17 40
e 17 41
e 17 42
e 17 46
e 17 47
e 17 48
e 17 49
e 17 51
e 17 52
e 17 54
e 17 55
e 17 56
e 17 57
e 17 59
e 17 62
e 17 64
e 17 65
e 17 66
e 17 67
e 17 68
e 17 69
e 17 71
e 17 74
e 17 75
e 17 78
e 17 81
e 17 84
e 17 85
e 17 90
e 17 93
e 17 94
e 17 98
e 17 99
e 17 101
e 17 102
e 17 104
e 17 109
e 17 113
e 17 116
e 17 117
e 17 121
e 17 122
e 17 123
e 17 131
e 17 137
e 17 140
e 17 143
e 17 144
e 17 148
e 17 150
e 17 151
e 17 154
e 17 156
e 17 158
e 17 160
e 17 164
e 17 165
e 17 166
e 17 170
e 17 172
e 17 175
e 17 178
e 17 181
e 17 186
e 17 189
e 17 192
e 17 198
e 17 203
e 17 207
e 17 209
e 17 224
e 17 225
e 17 227
e 17 228
e 17 237
e 18 19
e 18 20
e 18 21
e 18 22
e 18 23
e 18 24
e 18 25
e 18 26
e 18 27
e 18 28
e 18 30
e 18 31
e 18 33
e 18 34
e 18 36
e 18 39
e 18 40
e 18 44
e 18 45
e 18 47
e 18 49
e 18 52
e 18 55
e 18 61
e 18 64
e 18 65
e 18 67
e 18 68
e 18 69
e 18 72
e 18 73
e 18 81
e 18 87
e 18 92
e 18 95
e 18 102
e 18 106
e 18 107
e 18 108
e 18 114
e 18 120
e 18 121
e 18 125
e 18 126
e 18 128
e 18 135
e 18 136
e 18 138
e 18 139
e 18 142
e 18 157
e 18 159
e 18 160
e 18 161
e 18 166
e 18 170
e 18 172
e 18 179
e 18 180
e 18 182
e 18 183
e 18 184
e 18 189
e 18 191
e 18 192
e 18 194
e 18 200
e 18 208
e 18 212
e 18 220
e 18 225
e 18 227
e 18 239
e 18 246
e 19 20
e 19 21
e 19 22
e 19 23
e 19 24
e 19 25
e 19 26
e 19 27
e 19 28
e 19 29
e 19 30
e 19 31
e 19 34
e 19 35
e 19 37
e 19 38
e 19 39
e 19 40
e 19 41
e 19 42
e 19 43
e 19 45
e 19 46
e 19 50
e 19 51
e 19 52
e 19 53
e 19 55
e 19 56
e 19 59
e 19 60
e 19 61
e 19 63
e 19 64
e 19 68
e 19 70
e 19 71
e 19 72
e 19 78
e 19 80
e 19 82
e 19 83
e 19 87
e 19 88
e 19 89
e 19 93
e 19 95
e 19 102
e 19 106
e 19 111
e 19 112
e 19 113
e 19 118
e 19 119
e 19 121
e 19 136
e 19 140
e 19 141
e 19 144
e 19 146
e 19 149
e 19 151
e 19 153
e 19 182
e 19 188
e 19 195
e 19 203
e 19 210
e 19 213
e 19 222
e 19 227
e 19 231
e 19 240
e 19 245
e 20 21
e 20 22
e 20 23
e 20 24
e 20 26
e 20 27
e 20 28
e 20 29
e 20 30
e 20 32
e 20 34
e 20 35
e 20 36
e 20 39
e 20 41
e 20 42
e 20 47
e 20 48
e 20 53
e 20 54
e 20 56
e 20 57
e 20 58
e 20 62
e 20 70
e 20 71
e 20 72
e 20 90
e 20 95
e 20 96
e 20 97
e 20 104
e 20 114
e 20 121
e 20 125
e 20 130
e 20 133
e 20 134
e 20 143
e 20 145
e 20 147
e 20 156
e 20 167
e 20 173
e 20 174
e 20 177
e 20 193
e 20 198
e 20 203
e 20 209
e 20 215
e 20 232
e 20 243
e 21 22
e 21 23
e 21 25
e 21 26
e 21 27
e 21 28
e 21 29
e 21 30
e 21 31
e 21 32
e 21 35
e 21 36
e 21 37
e 21 38
e 21 39
e 21 40
e 21 41
e 21 46
e 21 47
e 21 50
e 21 51
e 21 52
e 21 56
e 21 60
e 21 63
e 21 65
e 21 69
e 21 74
e 21 75
e 21 77
e 21 81
e 21 82
e 21 84
e 21 85
e 21 86
e 21 88
e 21 89
e 21 93
e 21 98
e 21 105
e 21 106
e 21 109
e 21 111
e 21 115
e 21 117
e 21 119
e 21 120
e 21 123
e 21 131
e 21 140
e 21 142
e 21 143
e 21 153
e 21 159
e 21 167
e 21 170
e 21 173
e 21 177
e 21 182
e 21 183
e 21 184
e 21 186
e 21 192
e 21 202
e 21 204
e 21 206
e 21 208
e 21 210
e 21 215
e 21 216
e 21 217
e 21 231
e 21 235
e 21 236
e 21 246
e 22 23
e 22 24
e 22 25
e 22 27
e 22 29
e 22 32
e 22 33
e 22 34
e 22 36
e 22 37
e 22 38
e 22 39
e 22 40
e 22 41
e 22 42
e 22 43
e 22 44
e 22 45
e 22 47
e 22 49
e 22 50
e 22 54
e 22 58
e 22 59
e 22 62
e 22 73
e 22 75
e 22 76
e 22 80
e 22 82
e 22 88
e 22 90
e 22 91
e 22 96
e 22 98
e 22 99
e 22 109
e 22 114
e 22 117
e 22 120
e 22 125
e 22 129
e 22 133
e 22 138
e 22 144
e 22 146
e 22 153
e 22 155
e 22 163
e 22 165
e 22 167
e 22 172
e 22 173
e 22 182
e 22 184
e 22 188
e 22 195
e 22 197
e 22 201
e 22 205
e 22 217
e 22 222
e 22 228
e 22 240
e 22 241
e 23 25
e 23 26
e 23 27
e 23 28
e 23 30
e 23 31
e 23 32
e 23 34
e 23 35
e 23 36
e 23 37
e 23 40
e 23 42
e 23 50
e 23 53
e 23 55
e 23 60
e 23 61
e 23 63
e 23 64
e 23 67
e 23 69
e 23 74
e 23 83
e 23 92
e 23 100
e 23 101
e 23 104
e 23 105
e 23 109
e 23 113
e 23 124
e 23 133
e 23 134
e 23 137
e 23 142
e 23 158
e 23 167
e 23 183
e 23 196
e 23 197
e 23 199
e 23 202
e 23 209
e 23 229
e 23 231
e 23 241
e 24 25
e 24 26
e 24 27
e 24 28
e 24 29
e 24 31
e 24 32
e 24 33
e 24 34
e 24 35
e 24 36
e 24 37
e 24 38
e 24 39
e 24 42
e 24 44
e 24 46
e 24 48
e 24 51
e 24 52
e 24 53
e 24 55
e 24 56
e 24 57
e 24 59
e 24 60
e 24 68
e 24 70
e 24 77
e 24 80
e 24 81
e 24 84
e 24 87
e 24 88
e 24 89
e 24 91
e 24 97
e 24 99
e 24 101
e 24 105
e 24 109
e 24 111
e 24 115
e 24 118
e 24 119
e 24 123
e 24 126
e 24 130
e 24 132
e 24 133
e 24 134
e 24 145
e 24 149
e 24 151
e 24 162
e 24 167
e 24 172
e 24 174
e 24 178
e 24 182
e 24 185
e 24 188
e 24 189
e 24 192
e 24 196
e 24 197
e 24 200
e 24 206
e 24 207
e 24 208
e 24 216
e 24 224
e 24 232
e 24 233
e 24 238
e 24 242
e 24 245
e 25 26
e 25 27
e 25 29
e 25 30
e 25 31
e 25 35
e 25 36
e 25 37
e 25 38
e 25 41
e 25 43
e 25 52
e 25 53
e 25 61
e 25 63
e 25 64
e 25 67
e 25 70
e 25 75
e 25 79
e 25 82
e 25 85
e 25 86
e 25 90
e 25 93
e 25 96
e 25 99
e 25 102
e 25 112
e 25 114
e 25 119
e 25 130
e 25 131
e 25 138
e 25 147
e 25 150
e 25 157
e 25 159
e 25 160
e 25 162
e 25 167
e 25 169
e 25 170
e 25 188
e 25 192
e 25 205
e 25 214
e 25 218
e 25 220
e 25 224
e 25 237
e 26 27
e 26 28
e 26 29
e 26 30
e 26 35
e 26 37
e 26 38
e 26 40
e 26 41
e 26 43
e 26 45
e 26 46
e 26 47
e 26 49
e 26 50
e 26 53
e 26 55
e 26 56
e 26 57
e 26 62
e 26 67
e 26 75
e 26 80
e 26 83
e 26 84
e 26 89
e 26 92
e 26 99
e 26 102
e 26 109
e 26 112
e 26 118
e 26 120
e 26 123
e 26 128
e 26 129
e 26 131
e 26 138
e 26 143
e 26 144
e 26 150
e 26 153
e 26 154
e 26 157
e 26 171
e 26 186
e 26 192
e 26 198
e 26 199
e 26 208
e 26 214
e 26 216
e 26 219
e 26 243
e 27 30
e 27 31
e 27 33
e 27 35
e 27 36
e 27 37
e 27 38
e 27 39
e 27 43
e 27 44
e 27 46
e 27 47
e 27 50
e 27 51
e 27 52
e 27 53
e 27 56
e 27 64
e 27 65
e 27 69
e 27 74
e 27 76
e 27 80
e 27 86
e 27 88
e 27 100
e 27 103
e 27 104
e 27 105
e 27 114
e 27 116
e 27 123
e 27 125
e 27 127
e 27 128
e 27 131
e 27 133
e 27 135
e 27 140
e 27 141
e 27 142
e 27 144
e 27 149
e 27 151
e 27 152
e 27 159
e 27 160
e 27 169
e 27 179
e 27 180
e 27 184
e 27 188
e 27 189
e 27 197
e 27 201
e 27 204
e 27 206
e 27 215
e 27 219
e 27 222
e 27 223
e 27 227
e 27 229
e 27 241
e 28 29
e 28 32
e 28 35
e 28 39
e 28 44
e 28 45
e 28 48
e 28 49
e 28 55
e 28 56
e 28 59
e 28 60
e 28 64
e 28 67
e 28 68
e 28 71
e 28 76
e 28 83
e 28 86
e 28 91
e 28 94
e 28 95
e 28 97
e 28 106
e 28 108
e 28 116
e 28 123
e 28 125
e 28 142
e 28 146
e 28 149
e 28 151
e 28 152
e 28 162
e 28 168
e 28 174
e 28 190
e 28 198
e 28 199
e 28 206
e 28 214
e 28 217
e 28 224
e 28 230
e 28 238
e 28 240
e 28 245
e 29 30
e 29 31
e 29 32
e 29 34
e 29 35
e 29 39
e 29 40
e 29 41
e 29 46
e 29 47
e 29 48
e 29 49
e 29 50
e 29 51
e 29 54
e 29 61
e 29 64
e 29 72
e 29 85
e 29 87
e 29 94
e 29 98
e 29 99
e 29 101
e 29 107
e 29 108
e 29 109
e 29 110
e 29 113
e 29 114
e 29 123
e 29 124
e 29 127
e 29 129
e 29 130
e 29 134
e 29 145
e 29 146
e 29 161
e 29 162
e 29 165
e 29 173
e 29 175
e 29 176
e 29 177
e 29 185
e 29 190
e 29 196
e 29 200
e 29 205
e 29 207
e 29 214
e 29 215
e 29 216
e 29 221
e 29 227
e 29 240
e 30 33
e 30 34
e 30 35
e 30 37
e 30 44
e 30 47
e 30 57
e 30 58
e 30 65
e 30 67
e 30 72
e 30 73
e 30 77
e 30 79
e 30 81
e 30 83
e 30 84
e 30 85
e 30 86
e 30 87
e 30 95
e 30 96
e 30 97
e 30 103
e 30 104
e 30 106
e 30 108
e 30 110
e 30 111
e 30 112
e 30 115
e 30 121
e 30 137
e 30 138
e 30 139
e 30 141
e 30 142
e 30 144
e 30 147
e 30 149
e 30 154
e 30 155
e 30 156
e 30 165
e 30 171
e 30 177
e 30 179
e 30 183
e 30 193
e 30 204
e 30 207
e 30 208
e 30 211
e 30 219
e 30 243
e 31 32
e 31 33
e 31 34
e 31 35
e 31 44
e 31 45
e 31 48
e 31 50
e 31 51
e 31 52
e 31 54
e 31 61
e 31 66
e 31 68
e 31 75
e 31 80
e 31 83
e 31 87
e 31 88
e 31 90
e 31 91
e 31 92
e 31 93
e 31 94
e 31 99
e 31 120
e 31 122
e 31 124
e 31 126
e 31 131
e 31 144
e 31 145
e 31 146
e 31 158
e 31 159
e 31 160
e 31 162
e 31 169
e 31 173
e 31 177
e 31 189
e 31 191
e 31 192
e 31 193
e 31 194
e 31 203
e 31 206
e 31 208
e 31 213
e 31 218
e 31 222
e 31 224
e 31 230
e 31 233
e 32 34
e 32 36
e 32 40
e 32 44
e 32 47
e 32 48
e 32 49
e 32 57
e 32 60
e 32 62
e 32 64
e 32 65
e 32 76
e 32 81
e 32 82
e 32 83
e 32 86
e 32 87
e 32 90
e 32 92
e 32 94
e 32 96
e 32 97
e 32 107
e 32 137
e 32 161
e 32 165
e 32 185
e 32 203
e 32 225
e 33 36
e 33 37
e 33 38
e 33 41
e 33 42
e 33 44
e 33 45
e 33 50
e 33 52
e 33 55
e 33 58
e 33 60
e 33 64
e 33 65
e 33 66
e 33 68
e 33 71
e 33 76
e 33 91
e 33 92
e 33 95
e 33 104
e 33 106
e 33 107
e 33 122
e 33 126
e 33 127
e 33 134
e 33 159
e 33 163
e 33 173
e 33 176
e 33 177
e 33 179
e 33 185
e 33 193
e 33 201
e 33 209
e 33 212
e 33 237
e 33 239
e 33 242
e 34 37
e 34 38
e 34 39
e 34 40
e 34 41
e 34 42
e 34 43
e 34 44
e 34 45
e 34 46
e 34 47
e 34 49
e 34 50
e 34 51
e 34 54
e 34 60
e 34 61
e 34 71
e 34 73
e 34 75
e 34 76
e 34 77
e 34 78
e 34 79
e 34 82
e 34 84
e 34 87
e 34 95
e 34 100
e 34 101
e 34 103
e 34 108
e 34 110
e 34 112
e 34 116
e 34 119
e 34 124
e 34 126
e 34 128
e 34 133
e 34 136
e 34 141
e 34 151
e 34 154
e 34 180
e 34 182
e 34 183
e 34 185
e 34 189
e 34 203
e 34 212
e 34 214
e 34 215
e 34 217
e 34 236
e 34 244
e 34 245
e 34 246
e 35 40
e 35 44
e 35 48
e 35 51
e 35 54
e 35 57
e 35 58
e 35 59
e 35 61
e 35 62
e 35 69
e 35 74
e 35 79
e 35 80
e 35 99
e 35 101
e 35 130
e 35 155
e 35 174
e 35 175
e 35 182
e 35 202
e 35 207
e 35 208
e 35 216
e 35 224
e 35 228
e 36 39
e 36 42
e 36 43
e 36 44
e 36 48
e 36 56
e 36 57
e 36 58
e 36 59
e 36 61
e 36 63
e 36 65
e 36 68
e 36 74
e 36 86
e 36 89
e 36 91
e 36 93
e 36 95
e 36 101
e 36 103
e 36 111
e 36 112
e 36 118
e 36 122
e 36 126
e 36 134
e 36 137
e 36 145
e 36 148
e 36 151
e 36 164
e 36 166
e 36 176
e 36 182
e 36 199
e 36 200
e 36 215
e 36 219
e 36 228
e 36 234
e 36 235
e 36 240
e 36 242
e 36 243
e 37 38
e 37 43
e 37 44
e 37 48
e 37 49
e 37 50
e 37 53
e 37 55
e 37 58
e 37 66
e 37 78
e 37 79
e 37 80
e 37 81
e 37 89
e 37 90
e 37 97
e 37 100
e 37 108
e 37 121
e 37 129
e 37 182
e 37 187
e 37 197
e 37 243
e 37 246
e 38 39
e 38 45
e 38 46
e 38 54
e 38 59
e 38 63
e 38 72
e 38 73
e 38 82
e 38 85
e 38 89
e 38 98
e 38 106
e 38 129
e 38 153
e 38 157
e 38 161
e 38 175
e 38 176
e 38 186
e 38 229
e 38 238
e 38 246
e 39 41
e 39 42
e 39 43
e 39 45
e 39 46
e 39 47
e 39 53
e 39 59
e 39 62
e 39 67
e 39 69
e 39 70
e 39 73
e 39 74
e 39 75
e 39 76
e 39 77
e 39 91
e 39 128
e 39 130
e 39 156
e 39 161
e 39 163
e 39 178
e 39 184
e 39 215
e 39 216
e 39 230
e 39 233
e 39 238
e 40 42
e 40 47
e 40 52
e 40 53
e 40 59
e 40 61
e 40 76
e 40 88
e 40 89
e 40 96
e 40 97
e 40 102
e 40 116
e 40 120
e 40 135
e 40 136
e 40 145
e 40 147
e 40 149
e 40 151
e 40 154
e 40 155
e 40 163
e 40 171
e 40 189
e 40 193
e 40 211
e 40 213
e 40 219
e 40 221
e 40 238
e 41 42
e 41 51
e 41 57
e 41 64
e 41 65
e 41 71
e 41 74
e 41 81
e 41 90
e 41 102
e 41 142
e 41 149
e 41 163
e 41 165
e 41 196
e 41 197
e 41 207
e 41 233
e 41 237
e 42 47
e 42 48
e 42 49
e 42 52
e 42 53
e 42 54
e 42 60
e 42 62
e 42 63
e 42 68
e 42 70
e 42 73
e 42 74
e 42 75
e 42 79
e 42 80
e 42 83
e 42 84
e 42 86
e 42 87
e 42 89
e 42 94
e 42 96
e 42 104
e 42 105
e 42 115
e 42 117
e 42 128
e 42 132
e 42 135
e 42 139
e 42 143
e 42 148
e 42 149
e 42 151
e 42 155
e 42 156
e 42 161
e 42 164
e 42 165
e 42 166
e 42 172
e 42 175
e 42 178
e 42 186
e 42 194
e 42 196
e 42 198
e 42 209
e 42 217
e 42 220
e 42 221
e 42 228
e 42 229
e 42 235
e 43 55
e 43 60
e 43 64
e 43 70
e 43 77
e 43 84
e 43 87
e 43 91
e 43 115
e 43 119
e 43 127
e 43 134
e 43 164
e 43 168
e 43 181
e 43 211
e 43 223
e 43 233
e 43 241
e 44 46
e 44 47
e 44 53
e 44 65
e 44 66
e 44 71
e 44 78
e 44 82
e 44 84
e 44 91
e 44 93
e 44 103
e 44 105
e 44 111
e 44 113
e 44 115
e 44 127
e 44 128
e 44 129
e 44 133
e 44 134
e 44 138
e 44 142
e 44 143
e 44 145
e 44 148
e 44 153
e 44 160
e 44 170
e 44 182
e 44 190
e 44 194
e 44 195
e 44 204
e 44 209
e 44 210
e 44 211
e 44 216
e 44 217
e 44 218
e 44 223
e 44 228
e 44 229
e 44 231
e 44 246
e 45 46
e 45 49
e 45 58
e 45 66
e 45 68
e 45 76
e 45 78
e 45 82
e 45 83
e 45 86
e 45 98
e 45 103
e 45 110
e 45 126
e 45 136
e 45 143
e 45 179
e 45 183
e 45 184
e 45 203
e 45 205
e 45 225
e 45 230
e 46 58
e 46 59
e 46 69
e 46 72
e 46 100
e 46 105
e 46 115
e 46 120
e 46 122
e 46 124
e 46 140
e 46 150
e 46 152
e 46 183
e 46 186
e 46 202
e 46 211
e 46 225
e 46 234
e 47 51
e 47 55
e 47 56
e 47 61
e 47 63
e 47 68
e 47 77
e 47 109
e 47 111
e 47 113
e 47 132
e 47 159
e 47 168
e 47 175
e 47 191
e 47 194
e 47 198
e 47 201
e 47 213
e 47 235
e 47 236
e 48 50
e 48 52
e 48 55
e 48 60
e 48 63
e 48 66
e 48 67
e 48 68
e 48 69
e 48 76
e 48 90
e 48 92
e 48 94
e 48 98
e 48 103
e 48 107
e 48 119
e 48 123
e 48 141
e 48 147
e 48 166
e 48 170
e 48 174
e 48 175
e 48 220
e 48 231
e 48 235
e 48 241
e 49 53
e 49 58
e 49 66
e 49 71
e 49 73
e 49 76
e 49 81
e 49 86
e 49 101
e 49 116
e 49 121
e 49 136
e 49 140
e 49 152
e 49 158
e 49 163
e 49 167
e 49 171
e 49 175
e 49 177
e 49 178
e 49 183
e 49 198
e 49 205
e 49 211
e 49 213
e 49 226
e 49 230
e 50 60
e 50 66
e 50 69
e 50 72
e 50 73
e 50 75
e 50 78
e 50 80
e 50 81
e 50 83
e 50 85
e 50 86
e 50 87
e 50 96
e 50 99
e 50 103
e 50 108
e 50 126
e 50 132
e 50 133
e 50 143
e 50 150
e 50 158
e 50 161
e 50 165
e 50 167
e 50 169
e 50 170
e 50 172
e 50 185
e 50 187
e 50 216
e 50 231
e 50 235
e 50 244
e 51 56
e 51 64
e 51 65
e 51 69
e 51 70
e 51 72
e 51 78
e 51 88
e 51 91
e 51 95
e 51 97
e 51 104
e 51 106
e 51 108
e 51 133
e 51 166
e 51 180
e 51 190
e 51 232
e 51 237
e 52 57
e 52 58
e 52 62
e 52 64
e 52 66
e 52 70
e 52 79
e 52 80
e 52 81
e 52 85
e 52 95
e 52 102
e 52 105
e 52 109
e 52 110
e 52 111
e 52 112
e 52 121
e 52 125
e 52 133
e 52 146
e 52 147
e 52 153
e 52 156
e 52 160
e 52 161
e 52 178
e 52 179
e 52 187
e 52 209
e 52 211
e 52 212
e 52 214
e 52 216
e 52 228
e 52 245
e 53 63
e 53 65
e 53 66
e 53 74
e 53 76
e 53 79
e 53 85
e 53 86
e 53 88
e 53 90
e 53 93
e 53 99
e 53 109
e 53 111
e 53 118
e 53 119
e 53 124
e 53 125
e 53 133
e 53 134
e 53 141
e 53 144
e 53 146
e 53 153
e 53 156
e 53 167
e 53 176
e 53 177
e 53 184
e 53 187
e 53 210
e 53 220
e 53 226
e 53 230
e 54 61
e 54 72
e 54 77
e 54 80
e 54 87
e 54 94
e 54 103
e 54 114
e 54 137
e 54 212
e 54 215
e 55 62
e 55 73
e 55 83
e 55 89
e 55 99
e 55 104
e 55 110
e 55 113
e 55 119
e 55 125
e 55 135
e 55 136
e 55 137
e 55 139
e 55 145
e 55 150
e 55 157
e 55 161
e 55 178
e 55 180
e 55 188
e 55 195
e 55 202
e 55 205
e 55 208
e 55 209
e 55 210
e 55 218
e 55 225
e 55 233
e 55 234
e 56 57
e 56 62
e 56 70
e 56 94
e 56 100
e 56 101
e 56 119
e 56 120
e 56 122
e 56 134
e 56 135
e 56 136
e 56 140
e 56 142
e 56 145
e 56 148
e 56 162
e 56 164
e 56 178
e 56 179
e 56 189
e 56 244
e 57 58
e 57 62
e 57 64
e 57 65
e 57 70
e 57 74
e 57 77
e 57 78
e 57 82
e 57 83
e 57 96
e 57 105
e 57 109
e 57 112
e 57 129
e 57 135
e 57 147
e 57 148
e 57 152
e 57 158
e 57 181
e 57 187
e 57 230
e 57 245
e 58 59
e 58 62
e 58 68
e 58 71
e 58 72
e 58 74
e 58 78
e 58 93
e 58 95
e 58 110
e 58 118
e 58 121
e 58 125
e 58 131
e 58 140
e 58 144
e 58 155
e 58 172
e 58 177
e 58 180
e 58 182
e 58 185
e 58 214
e 58 231
e 58 234
e 58 236
e 58 243
e 59 63
e 59 69
e 59 72
e 59 79
e 59 82
e 59 112
e 59 127
e 59 128
e 59 140
e 59 154
e 59 163
e 59 197
e 59 206
e 59 210
e 59 212
e 59 222
e 59 226
e 59 232
e 59 237
e 59 241
e 60 67
e 60 84
e 60 92
e 60 93
e 60 95
e 60 102
e 60 106
e 60 109
e 60 116
e 60 120
e 60 126
e 60 154
e 60 164
e 60 185
e 60 189
e 60 191
e 60 193
e 60 206
e 60 208
e 61 63
e 61 67
e 61 77
e 61 95
e 61 108
e 61 109
e 61 120
e 61 126
e 61 127
e 61 135
e 61 137
e 61 144
e 61 149
e 61 152
e 61 173
e 61 187
e 61 207
e 61 237
e 61 238
e 62 66
e 62 77
e 62 89
e 62 97
e 62 102
e 62 108
e 62 137
e 62 179
e 62 185
e 62 197
e 62 227
e 62 232
e 63 72
e 63 93
e 63 98
e 63 100
e 63 125
e 63 172
e 63 196
e 63 212
e 63 229
e 63 240
e 64 68
e 64 101
e 64 118
e 64 129
e 64 138
e 64 143
e 64 150
e 64 188
e 64 193
e 64 208
e 64 214
e 64 235
e 64 237
e 64 240
e 65 68
e 65 73
e 65 103
e 65 107
e 65 111
e 65 114
e 65 115
e 65 117
e 65 119
e 65 120
e 65 126
e 65 128
e 65 132
e 65 137
e 65 141
e 65 143
e 65 154
e 65 156
e 65 163
e 65 164
e 65 176
e 65 186
e 65 187
e 65 192
e 65 194
e 65 212
e 65 215
e 65 227
e 65 229
e 65 242
e 65 245
e 66 76
e 66 79
e 66 86
e 66 95
e 66 117
e 66 126
e 66 128
e 66 129
e 66 130
e 66 132
e 66 138
e 66 139
e 66 171
e 66 196
e 66 218
e 66 224
e 66 226
e 66 227
e 67 71
e 67 72
e 67 73
e 67 78
e 67 96
e 67 115
e 67 162
e 67 163
e 67 169
e 67 170
e 67 220
e 67 221
e 67 237
e 68 69
e 68 70
e 68 79
e 68 87
e 68 93
e 68 101
e 68 119
e 68 127
e 68 129
e 68 152
e 68 153
e 68 168
e 68 178
e 68 189
e 68 205
e 68 213
e 68 225
e 68 228
e 68 245
e 69 71
e 69 83
e 69 89
e 69 94
e 69 117
e 69 121
e 69 122
e 69 124
e 69 128
e 69 130
e 69 142
e 69 153
e 69 158
e 69 166
e 69 170
e 69 171
e 69 176
e 69 177
e 69 179
e 70 71
e 70 73
e 70 79
e 70 82
e 70 98
e 70 99
e 70 100
e 70 107
e 70 111
e 70 113
e 70 114
e 70 115
e 70 117
e 70 118
e 70 120
e 70 129
e 70 142
e 70 156
e 70 166
e 70 181
e 70 184
e 70 186
e 70 190
e 70 191
e 70 193
e 70 227
e 70 234
e 70 240
e 71 86
e 71 101
e 71 102
e 71 105
e 71 108
e 71 111
e 71 118
e 71 127
e 71 133
e 71 141
e 71 148
e 71 157
e 71 164
e 71 182
e 71 183
e 71 187
e 71 191
e 71 194
e 71 203
e 71 217
e 71 222
e 71 228
e 71 242
e 71 245
e 72 78
e 72 81
e 72 90
e 72 112
e 72 125
e 72 133
e 72 139
e 72 145
e 72 159
e 72 170
e 72 178
e 72 193
e 72 199
e 72 204
e 72 229
e 73 74
e 73 78
e 73 88
e 73 106
e 73 118
e 73 119
e 73 124
e 73 129
e 73 133
e 73 139
e 73 142
e 73 150
e 73 156
e 73 180
e 73 192
e 73 199
e 73 202
e 74 81
e 74 85
e 74 88
e 74 95
e 74 96
e 74 106
e 74 115
e 74 117
e 74 161
e 74 168
e 74 224
e 74 236
e 74 237
e 75 88
e 75 89
e 75 90
e 75 114
e 75 138
e 75 140
e 75 143
e 75 148
e 75 154
e 75 158
e 75 174
e 75 175
e 75 176
e 75 181
e 75 183
e 75 188
e 75 191
e 75 195
e 75 207
e 75 226
e 75 229
e 75 241
e 76 82
e 76 87
e 76 91
e 76 101
e 76 110
e 76 120
e 76 123
e 76 140
e 76 163
e 76 180
e 76 184
e 76 197
e 76 198
e 76 212
e 76 228
e 76 231
e 76 233
e 76 246
e 77 87
e 77 93
e 77 115
e 77 120
e 77 124
e 77 125
e 77 131
e 77 136
e 77 144
e 77 157
e 77 166
e 77 180
e 77 187
e 77 204
e 77 212
e 77 217
e 77 219
e 77 228
e 77 229
e 77 239
e 77 244
e 78 85
e 78 94
e 78 97
e 78 100
e 78 105
e 78 110
e 78 112
e 78 113
e 78 121
e 78 127
e 78 148
e 78 155
e 78 156
e 78 164
e 78 168
e 78 174
e 78 178
e 78 203
e 78 210
e 78 215
e 78 219
e 78 242
e 79 91
e 79 92
e 79 98
e 79 104
e 79 112
e 79 119
e 79 123
e 79 131
e 79 132
e 79 136
e 79 165
e 79 168
e 79 175
e 79 196
e 79 197
e 79 202
e 79 204
e 79 205
e 79 208
e 79 238
e 79 246
e 80 111
e 80 116
e 80 140
e 80 154
e 80 168
e 80 169
e 80 202
e 80 206
e 81 82
e 81 93
e 81 95
e 81 97
e 81 111
e 81 119
e 81 124
e 81 130
e 81 139
e 81 150
e 81 151
e 81 184
e 81 199
e 81 208
e 81 217
e 81 236
e 82 90
e 82 91
e 82 100
e 82 122
e 82 123
e 82 127
e 82 146
e 82 158
e 82 162
e 82 168
e 82 172
e 82 175
e 82 220
e 83 84
e 83 96
e 83 98
e 83 100
e 83 104
e 83 109
e 83 118
e 83 119
e 83 171
e 83 203
e 83 206
e 83 228
e 83 239
e 83 242
e 83 243
e 84 92
e 84 127
e 84 131
e 84 149
e 84 150
e 84 154
e 84 159
e 84 161
e 84 173
e 84 188
e 84 190
e 84 194
e 84 197
e 84 199
e 84 206
e 84 207
e 84 236
e 85 98
e 85 103
e 85 105
e 85 106
e 85 107
e 85 117
e 85 129
e 85 145
e 85 172
e 85 174
e 85 182
e 85 200
e 85 204
e 85 216
e 85 219
e 85 235
e 86 97
e 86 100
e 86 104
e 86 107
e 86 113
e 86 122
e 86 169
e 86 172
e 86 183
e 86 194
e 86 201
e 86 209
e 86 234
e 87 88
e 87 94
e 87 99
e 87 110
e 87 113
e 87 134
e 87 142
e 87 144
e 87 159
e 87 165
e 87 170
e 87 171
e 87 201
e 87 204
e 87 209
e 87 218
e 87 219
e 87 220
e 87 229
e 88 92
e 88 102
e 88 109
e 88 141
e 88 190
e 88 195
e 88 199
e 88 211
e 89 91
e 89 108
e 89 147
e 89 148
e 89 157
e 89 160
e 89 181
e 89 191
e 89 202
e 89 232
e 89 233
e 89 234
e 90 96
e 90 116
e 90 124
e 90 131
e 90 192
e 90 194
e 90 205
e 91 96
e 91 100
e 91 117
e 91 151
e 91 171
e 91 217
e 91 223
e 91 227
e 91 232
e 91 243
e 92 98
e 92 103
e 92 106
e 92 109
e 92 114
e 92 122
e 92 129
e 92 162
e 92 168
e 92 200
e 92 213
e 92 234
e 93 99
e 93 110
e 93 138
e 93 143
e 93 153
e 93 187
e 93 212
e 93 220
e 94 129
e 94 138
e 94 152
e 94 177
e 94 203
e 94 207
e 94 210
e 94 225
e 94 226
e 95 96
e 95 111
e 95 115
e 95 122
e 95 143
e 95 148
e 95 158
e 95 170
e 95 171
e 95 185
e 95 199
e 95 204
e 95 205
e 95 214
e 95 224
e 95 244
e 96 97
e 96 105
e 96 117
e 96 127
e 96 158
e 96 176
e 96 193
e 96 221
e 96 227
e 96 235
e 97 103
e 97 117
e 97 122
e 97 140
e 97 152
e 97 189
e 97 195
e 97 203
e 97 233
e 97 242
e 97 244
e 98 99
e 98 110
e 98 114
e 98 122
e 98 132
e 98 146
e 98 147
e 98 150
e 98 178
e 98 236
e 98 243
e 99 102
e 99 125
e 99 135
e 99 184
e 99 194
e 99 199
e 99 230
e 99 238
e 100 102
e 100 106
e 100 114
e 100 136
e 100 143
e 100 169
e 100 172
e 100 202
e 100 245
e 101 104
e 101 121
e 101 154
e 101 189
e 101 195
e 101 227
e 101 236
e 102 108
e 102 110
e 102 127
e 102 128
e 102 147
e 102 159
e 102 220
e 102 231
e 102 232
e 103 106
e 103 115
e 103 116
e 103 139
e 103 147
e 103 148
e 103 155
e 103 160
e 103 162
e 103 168
e 103 226
e 103 230
e 103 231
e 103 244
e 104 110
e 104 124
e 104 135
e 104 154
e 104 169
e 104 174
e 104 176
e 104 183
e 104 200
e 104 209
e 104 221
e 105 117
e 105 127
e 105 146
e 105 147
e 105 149
e 105 215
e 105 238
e 105 244
e 105 246
e 106 107
e 106 120
e 106 123
e 106 145
e 106 155
e 106 157
e 106 165
e 107 124
e 107 132
e 107 141
e 107 157
e 107 199
e 107 213
e 107 222
e 107 227
e 108 112
e 108 121
e 108 132
e 108 135
e 108 142
e 108 173
e 108 179
e 108 182
e 108 225
e 108 234
e 109 116
e 109 148
e 109 152
e 109 155
e 109 158
e 109 162
e 109 180
e 109 188
e 109 198
e 109 202
e 109 218
e 109 239
e 109 242
e 110 114
e 110 115
e 110 118
e 110 132
e 110 141
e 110 160
e 110 167
e 110 168
e 110 222
e 110 238
e 111 112
e 111 122
e 111 132
e 111 134
e 111 136
e 111 139
e 111 140
e 111 145
e 111 146
e 111 152
e 111 176
e 111 181
e 111 192
e 111 199
e 111 201
e 111 217
e 111 221
e 112 113
e 112 122
e 112 124
e 112 129
e 112 137
e 112 181
e 112 192
e 112 205
e 112 229
e 112 234
e 112 241
e 113 130
e 113 131
e 113 155
e 113 165
e 113 182
e 113 191
e 113 202
e 113 221
e 114 116
e 114 121
e 114 128
e 114 138
e 114 170
e 114 173
e 114 183
e 114 185
e 114 204
e 114 208
e 114 219
e 114 241
e 115 118
e 115 200
e 115 225
e 116 130
e 116 146
e 116 156
e 116 161
e 116 162
e 116 164
e 116 181
e 116 201
e 116 206
e 116 207
e 116 208
e 116 210
e 116 213
e 116 214
e 116 216
e 116 222
e 116 232
e 116 238
e 117 118
e 117 122
e 117 126
e 117 185
e 117 233
e 118 126
e 118 150
e 118 153
e 118 167
e 118 179
e 118 180
e 118 181
e 118 184
e 118 198
e 118 214
e 118 223
e 118 228
e 118 236
e 119 161
e 119 168
e 119 223
e 119 246
e 120 123
e 120 136
e 120 154
e 120 160
e 120 198
e 120 202
e 120 203
e 120 239
e 121 138
e 121 150
e 121 172
e 121 176
e 121 190
e 121 215
e 121 219
e 121 240
e 122 137
e 122 143
e 122 151
e 122 160
e 122 165
e 122 197
e 122 217
e 122 223
e 122 244
e 123 130
e 123 138
e 123 139
e 123 146
e 123 149
e 123 176
e 123 184
e 123 192
e 123 200
e 123 207
e 123 213
e 124 154
e 124 175
e 125 126
e 125 141
e 125 213
e 125 220
e 125 227
e 125 232
e 126 130
e 126 135
e 126 153
e 126 231
e 126 232
e 127 141
e 127 147
e 127 166
e 127 180
e 127 185
e 127 209
e 127 236
e 128 142
e 128 164
e 128 181
e 128 237
e 129 130
e 129 140
e 129 146
e 129 150
e 129 158
e 129 163
e 129 169
e 129 174
e 129 187
e 130 138
e 130 155
e 130 231
e 130 246
e 131 132
e 131 152
e 131 155
e 131 161
e 131 203
e 131 207
e 132 144
e 132 166
e 132 173
e 132 189
e 132 192
e 132 195
e 132 197
e 132 228
e 132 232
e 132 241
e 132 242
e 133 134
e 133 143
e 133 156
e 133 162
e 133 164
e 133 167
e 133 170
e 133 183
e 134 158
e 134 161
e 134 170
e 134 185
e 134 191
e 134 239
e 134 240
e 135 191
e 135 210
e 135 225
e 135 236
e 136 153
e 136 158
e 136 166
e 136 216
e 136 244
e 137 153
e 137 163
e 137 204
e 137 219
e 138 148
e 138 151
e 138 164
e 138 188
e 138 218
e 138 242
e 138 243
e 139 149
e 139 152
e 139 159
e 139 221
e 139 228
e 140 159
e 140 166
e 140 173
e 140 180
e 140 190
e 140 231
e 140 240
e 141 169
e 141 174
e 141 184
e 141 200
e 141 239
e 142 144
e 142 194
e 142 229
e 142 235
e 142 246
e 143 150
e 143 198
e 143 199
e 143 226
e 144 186
e 144 196
e 144 226
e 144 235
e 145 152
e 145 166
e 145 171
e 145 175
e 145 196
e 145 214
e 145 243
e 146 178
e 146 179
e 146 181
e 146 200
e 146 230
e 147 151
e 147 181
e 147 195
e 147 198
e 147 215
e 147 240
e 147 243
e 148 157
e 149 155
e 149 169
e 149 171
e 149 183
e 149 184
e 149 207
e 149 208
e 150 160
e 150 162
e 150 186
e 150 195
e 150 239
e 151 157
e 151 159
e 151 172
e 151 188
e 151 189
e 151 193
e 151 202
e 151 226
e 151 240
e 152 173
e 152 174
e 152 204
e 152 227
e 153 156
e 153 160
e 153 201
e 153 206
e 153 241
e 154 162
e 154 167
e 154 174
e 154 189
e 154 191
e 154 197
e 154 226
e 155 164
e 155 165
e 155 196
e 155 234
e 156 197
e 156 211
e 156 241
e 157 164
e 157 186
e 157 238
e 158 159
e 158 166
e 158 176
e 158 193
e 158 220
e 158 229
e 159 163
e 159 186
e 159 209
e 159 239
e 160 174
e 160 193
e 160 203
e 160 204
e 160 212
e 160 218
e 160 222
e 161 164
e 161 170
e 161 186
e 161 194
e 162 167
e 162 181
e 162 184
e 162 211
e 162 225
e 162 246
e 163 173
e 163 209
e 163 210
e 163 213
e 163 220
e 164 177
e 164 178
e 164 196
e 164 205
e 164 208
e 164 213
e 164 226
e 164 244
e 165 173
e 165 186
e 165 197
e 165 210
e 165 235
e 165 244
e 166 174
e 166 175
e 166 177
e 167 172
e 168 177
e 168 225
e 169 171
e 169 179
e 169 195
e 169 217
e 170 172
e 170 221
e 171 186
e 171 219
e 171 222
e 171 226
e 171 241
e 172 231
e 173 195
e 173 201
e 173 210
e 173 223
e 174 221
e 174 228
e 175 179
e 175 204
e 176 188
e 176 225
e 176 235
e 177 196
e 177 200
e 177 201
e 177 212
e 177 218
e 177 234
e 177 236
e 177 240
e 178 181
e 178 190
e 178 196
e 178 201
e 178 238
e 179 205
e 179 237
e 179 243
e 180 187
e 180 200
e 180 210
e 180 213
e 180 217
e 180 220
e 181 186
e 181 187
e 181 199
e 181 216
e 182 206
e 183 191
e 183 195
e 183 215
e 183 216
e 183 217
e 184 194
e 184 224
e 185 190
e 185 238
e 185 243
e 186 223
e 186 242
e 187 192
e 187 193
e 188 191
e 189 212
e 189 234
e 190 239
e 191 202
e 191 222
e 191 244
e 192 207
e 192 209
e 192 214
e 192 232
e 193 196
e 193 242
e 194 198
e 194 219
e 195 236
e 196 209
e 196 214
e 196 226
e 196 231
e 197 211
e 197 221
e 197 241
e 198 200
e 198 215
e 198 232
e 198 235
e 199 237
e 200 202
e 200 206
e 200 218
e 200 219
e 200 224
e 200 235
e 201 216
e 201 218
e 201 245
e 202 232
e 202 233
e 203 205
e 203 233
e 203 236
e 203 237
e 203 239
e 204 214
e 204 222
e 204 233
e 205 211
e 205 225
e 205 237
e 206 223
e 206 234
e 206 239
e 208 218
e 208 221
e 208 224
e 208 225
e 209 219
e 210 215
e 210 218
e 210 222
e 210 241
e 212 216
e 213 238
e 213 241
e 214 230
e 215 246
e 216 231
e 218 236
e 219 222
e 220 224
e 223 230
e 223 234
e 225 244
e 226 230
e 226 246
e 229 230
e 229 243
e 230 233
e 232 239
e 232 245
e 233 245
e 234 240
